n=10; m= 10; 


13	22	30	17	40	16	21	49	44	48
32	47	14	71	71	69	37	72	71	17
22	93	62	53	30	34	7	30	54	77
76	47	73	57	63	69	17	35	24	29
62	49	90	34	11	81	51	21	39	27
2	39	91	81	33	14	88	22	36	65
59	32	16	87	78	41	43	94	1	93
24	47	39	66	41	46	24	23	68	50
23	32	26	22	12	23	34	87	59	2
62	49	90	34	11	81	51	21	39	27







